p cnf 420 1391
-1 0
-211 0
225 2 0
-225 -2 0
2 239 3 0
-2 -239 0
-2 -3 0
-239 -3 0
3 253 4 0
-3 -253 0
-3 -4 0
-253 -4 0
4 267 5 0
-4 -267 0
-4 -5 0
-267 -5 0
5 281 6 0
-5 -281 0
-5 -6 0
-281 -6 0
6 295 7 0
-6 -295 0
-6 -7 0
-295 -7 0
7 309 8 0
-7 -309 0
-7 -8 0
-309 -8 0
8 323 9 0
-8 -323 0
-8 -9 0
-323 -9 0
9 337 10 0
-9 -337 0
-9 -10 0
-337 -10 0
10 351 11 0
-10 -351 0
-10 -11 0
-351 -11 0
11 365 12 0
-11 -365 0
-11 -12 0
-365 -12 0
12 379 13 0
-12 -379 0
-12 -13 0
-379 -13 0
13 393 14 0
-13 -393 0
-13 -14 0
-393 -14 0
14 407 0
-14 -407 0
212 15 0
-212 -15 0
225 15 226 16 0
-225 -15 0
-225 -226 0
-225 -16 0
-15 -226 0
-15 -16 0
-226 -16 0
239 16 240 17 0
-239 -16 0
-239 -240 0
-239 -17 0
-16 -240 0
-16 -17 0
-240 -17 0
253 17 254 18 0
-253 -17 0
-253 -254 0
-253 -18 0
-17 -254 0
-17 -18 0
-254 -18 0
267 18 268 19 0
-267 -18 0
-267 -268 0
-267 -19 0
-18 -268 0
-18 -19 0
-268 -19 0
281 19 282 20 0
-281 -19 0
-281 -282 0
-281 -20 0
-19 -282 0
-19 -20 0
-282 -20 0
295 20 296 21 0
-295 -20 0
-295 -296 0
-295 -21 0
-20 -296 0
-20 -21 0
-296 -21 0
309 21 310 22 0
-309 -21 0
-309 -310 0
-309 -22 0
-21 -310 0
-21 -22 0
-310 -22 0
323 22 324 23 0
-323 -22 0
-323 -324 0
-323 -23 0
-22 -324 0
-22 -23 0
-324 -23 0
337 23 338 24 0
-337 -23 0
-337 -338 0
-337 -24 0
-23 -338 0
-23 -24 0
-338 -24 0
351 24 352 25 0
-351 -24 0
-351 -352 0
-351 -25 0
-24 -352 0
-24 -25 0
-352 -25 0
365 25 366 26 0
-365 -25 0
-365 -366 0
-365 -26 0
-25 -366 0
-25 -26 0
-366 -26 0
379 26 380 27 0
-379 -26 0
-379 -380 0
-379 -27 0
-26 -380 0
-26 -27 0
-380 -27 0
393 27 394 28 0
-393 -27 0
-393 -394 0
-393 -28 0
-27 -394 0
-27 -28 0
-394 -28 0
407 28 408 0
-407 -28 0
-407 -408 0
-28 -408 0
212 213 29 0
-212 -213 0
-212 -29 0
-213 -29 0
226 29 227 30 0
-226 -29 0
-226 -227 0
-226 -30 0
-29 -227 0
-29 -30 0
-227 -30 0
240 30 241 31 0
-240 -30 0
-240 -241 0
-240 -31 0
-30 -241 0
-30 -31 0
-241 -31 0
254 31 255 32 0
-254 -31 0
-254 -255 0
-254 -32 0
-31 -255 0
-31 -32 0
-255 -32 0
268 32 269 33 0
-268 -32 0
-268 -269 0
-268 -33 0
-32 -269 0
-32 -33 0
-269 -33 0
282 33 283 34 0
-282 -33 0
-282 -283 0
-282 -34 0
-33 -283 0
-33 -34 0
-283 -34 0
296 34 297 35 0
-296 -34 0
-296 -297 0
-296 -35 0
-34 -297 0
-34 -35 0
-297 -35 0
310 35 311 36 0
-310 -35 0
-310 -311 0
-310 -36 0
-35 -311 0
-35 -36 0
-311 -36 0
324 36 325 37 0
-324 -36 0
-324 -325 0
-324 -37 0
-36 -325 0
-36 -37 0
-325 -37 0
338 37 339 38 0
-338 -37 0
-338 -339 0
-338 -38 0
-37 -339 0
-37 -38 0
-339 -38 0
352 38 353 39 0
-352 -38 0
-352 -353 0
-352 -39 0
-38 -353 0
-38 -39 0
-353 -39 0
366 39 367 40 0
-366 -39 0
-366 -367 0
-366 -40 0
-39 -367 0
-39 -40 0
-367 -40 0
380 40 381 41 0
-380 -40 0
-380 -381 0
-380 -41 0
-40 -381 0
-40 -41 0
-381 -41 0
394 41 395 42 0
-394 -41 0
-394 -395 0
-394 -42 0
-41 -395 0
-41 -42 0
-395 -42 0
408 42 409 0
-408 -42 0
-408 -409 0
-42 -409 0
213 214 43 0
-213 -214 0
-213 -43 0
-214 -43 0
227 43 228 44 0
-227 -43 0
-227 -228 0
-227 -44 0
-43 -228 0
-43 -44 0
-228 -44 0
241 44 242 45 0
-241 -44 0
-241 -242 0
-241 -45 0
-44 -242 0
-44 -45 0
-242 -45 0
255 45 256 46 0
-255 -45 0
-255 -256 0
-255 -46 0
-45 -256 0
-45 -46 0
-256 -46 0
269 46 270 47 0
-269 -46 0
-269 -270 0
-269 -47 0
-46 -270 0
-46 -47 0
-270 -47 0
283 47 284 48 0
-283 -47 0
-283 -284 0
-283 -48 0
-47 -284 0
-47 -48 0
-284 -48 0
297 48 298 49 0
-297 -48 0
-297 -298 0
-297 -49 0
-48 -298 0
-48 -49 0
-298 -49 0
311 49 312 50 0
-311 -49 0
-311 -312 0
-311 -50 0
-49 -312 0
-49 -50 0
-312 -50 0
325 50 326 51 0
-325 -50 0
-325 -326 0
-325 -51 0
-50 -326 0
-50 -51 0
-326 -51 0
339 51 340 52 0
-339 -51 0
-339 -340 0
-339 -52 0
-51 -340 0
-51 -52 0
-340 -52 0
353 52 354 53 0
-353 -52 0
-353 -354 0
-353 -53 0
-52 -354 0
-52 -53 0
-354 -53 0
367 53 368 54 0
-367 -53 0
-367 -368 0
-367 -54 0
-53 -368 0
-53 -54 0
-368 -54 0
381 54 382 55 0
-381 -54 0
-381 -382 0
-381 -55 0
-54 -382 0
-54 -55 0
-382 -55 0
395 55 396 56 0
-395 -55 0
-395 -396 0
-395 -56 0
-55 -396 0
-55 -56 0
-396 -56 0
409 56 410 0
-409 -56 0
-409 -410 0
-56 -410 0
214 215 57 0
-214 -215 0
-214 -57 0
-215 -57 0
228 57 229 58 0
-228 -57 0
-228 -229 0
-228 -58 0
-57 -229 0
-57 -58 0
-229 -58 0
242 58 243 59 0
-242 -58 0
-242 -243 0
-242 -59 0
-58 -243 0
-58 -59 0
-243 -59 0
256 59 257 60 0
-256 -59 0
-256 -257 0
-256 -60 0
-59 -257 0
-59 -60 0
-257 -60 0
270 60 271 61 0
-270 -60 0
-270 -271 0
-270 -61 0
-60 -271 0
-60 -61 0
-271 -61 0
284 61 285 62 0
-284 -61 0
-284 -285 0
-284 -62 0
-61 -285 0
-61 -62 0
-285 -62 0
298 62 299 63 0
-298 -62 0
-298 -299 0
-298 -63 0
-62 -299 0
-62 -63 0
-299 -63 0
312 63 313 64 0
-312 -63 0
-312 -313 0
-312 -64 0
-63 -313 0
-63 -64 0
-313 -64 0
326 64 327 65 0
-326 -64 0
-326 -327 0
-326 -65 0
-64 -327 0
-64 -65 0
-327 -65 0
340 65 341 66 0
-340 -65 0
-340 -341 0
-340 -66 0
-65 -341 0
-65 -66 0
-341 -66 0
354 66 355 67 0
-354 -66 0
-354 -355 0
-354 -67 0
-66 -355 0
-66 -67 0
-355 -67 0
368 67 369 68 0
-368 -67 0
-368 -369 0
-368 -68 0
-67 -369 0
-67 -68 0
-369 -68 0
382 68 383 69 0
-382 -68 0
-382 -383 0
-382 -69 0
-68 -383 0
-68 -69 0
-383 -69 0
396 69 397 70 0
-396 -69 0
-396 -397 0
-396 -70 0
-69 -397 0
-69 -70 0
-397 -70 0
410 70 411 0
-410 -70 0
-410 -411 0
-70 -411 0
215 216 71 0
-215 -216 0
-215 -71 0
-216 -71 0
229 71 230 72 0
-229 -71 0
-229 -230 0
-229 -72 0
-71 -230 0
-71 -72 0
-230 -72 0
243 72 244 73 0
-243 -72 0
-243 -244 0
-243 -73 0
-72 -244 0
-72 -73 0
-244 -73 0
257 73 258 74 0
-257 -73 0
-257 -258 0
-257 -74 0
-73 -258 0
-73 -74 0
-258 -74 0
271 74 272 75 0
-271 -74 0
-271 -272 0
-271 -75 0
-74 -272 0
-74 -75 0
-272 -75 0
285 75 286 76 0
-285 -75 0
-285 -286 0
-285 -76 0
-75 -286 0
-75 -76 0
-286 -76 0
299 76 300 77 0
-299 -76 0
-299 -300 0
-299 -77 0
-76 -300 0
-76 -77 0
-300 -77 0
313 77 314 78 0
-313 -77 0
-313 -314 0
-313 -78 0
-77 -314 0
-77 -78 0
-314 -78 0
327 78 328 79 0
-327 -78 0
-327 -328 0
-327 -79 0
-78 -328 0
-78 -79 0
-328 -79 0
341 79 342 80 0
-341 -79 0
-341 -342 0
-341 -80 0
-79 -342 0
-79 -80 0
-342 -80 0
355 80 356 81 0
-355 -80 0
-355 -356 0
-355 -81 0
-80 -356 0
-80 -81 0
-356 -81 0
369 81 370 82 0
-369 -81 0
-369 -370 0
-369 -82 0
-81 -370 0
-81 -82 0
-370 -82 0
383 82 384 83 0
-383 -82 0
-383 -384 0
-383 -83 0
-82 -384 0
-82 -83 0
-384 -83 0
397 83 398 84 0
-397 -83 0
-397 -398 0
-397 -84 0
-83 -398 0
-83 -84 0
-398 -84 0
411 84 412 0
-411 -84 0
-411 -412 0
-84 -412 0
216 217 85 0
-216 -217 0
-216 -85 0
-217 -85 0
230 85 231 86 0
-230 -85 0
-230 -231 0
-230 -86 0
-85 -231 0
-85 -86 0
-231 -86 0
244 86 245 87 0
-244 -86 0
-244 -245 0
-244 -87 0
-86 -245 0
-86 -87 0
-245 -87 0
258 87 259 88 0
-258 -87 0
-258 -259 0
-258 -88 0
-87 -259 0
-87 -88 0
-259 -88 0
272 88 273 89 0
-272 -88 0
-272 -273 0
-272 -89 0
-88 -273 0
-88 -89 0
-273 -89 0
286 89 287 90 0
-286 -89 0
-286 -287 0
-286 -90 0
-89 -287 0
-89 -90 0
-287 -90 0
300 90 301 91 0
-300 -90 0
-300 -301 0
-300 -91 0
-90 -301 0
-90 -91 0
-301 -91 0
314 91 315 92 0
-314 -91 0
-314 -315 0
-314 -92 0
-91 -315 0
-91 -92 0
-315 -92 0
328 92 329 93 0
-328 -92 0
-328 -329 0
-328 -93 0
-92 -329 0
-92 -93 0
-329 -93 0
342 93 343 94 0
-342 -93 0
-342 -343 0
-342 -94 0
-93 -343 0
-93 -94 0
-343 -94 0
356 94 357 95 0
-356 -94 0
-356 -357 0
-356 -95 0
-94 -357 0
-94 -95 0
-357 -95 0
370 95 371 96 0
-370 -95 0
-370 -371 0
-370 -96 0
-95 -371 0
-95 -96 0
-371 -96 0
384 96 385 97 0
-384 -96 0
-384 -385 0
-384 -97 0
-96 -385 0
-96 -97 0
-385 -97 0
398 97 399 98 0
-398 -97 0
-398 -399 0
-398 -98 0
-97 -399 0
-97 -98 0
-399 -98 0
412 98 413 0
-412 -98 0
-412 -413 0
-98 -413 0
217 218 99 0
-217 -218 0
-217 -99 0
-218 -99 0
231 99 232 100 0
-231 -99 0
-231 -232 0
-231 -100 0
-99 -232 0
-99 -100 0
-232 -100 0
245 100 246 101 0
-245 -100 0
-245 -246 0
-245 -101 0
-100 -246 0
-100 -101 0
-246 -101 0
259 101 260 102 0
-259 -101 0
-259 -260 0
-259 -102 0
-101 -260 0
-101 -102 0
-260 -102 0
273 102 274 103 0
-273 -102 0
-273 -274 0
-273 -103 0
-102 -274 0
-102 -103 0
-274 -103 0
287 103 288 104 0
-287 -103 0
-287 -288 0
-287 -104 0
-103 -288 0
-103 -104 0
-288 -104 0
301 104 302 105 0
-301 -104 0
-301 -302 0
-301 -105 0
-104 -302 0
-104 -105 0
-302 -105 0
315 105 316 106 0
-315 -105 0
-315 -316 0
-315 -106 0
-105 -316 0
-105 -106 0
-316 -106 0
329 106 330 107 0
-329 -106 0
-329 -330 0
-329 -107 0
-106 -330 0
-106 -107 0
-330 -107 0
343 107 344 108 0
-343 -107 0
-343 -344 0
-343 -108 0
-107 -344 0
-107 -108 0
-344 -108 0
357 108 358 109 0
-357 -108 0
-357 -358 0
-357 -109 0
-108 -358 0
-108 -109 0
-358 -109 0
371 109 372 110 0
-371 -109 0
-371 -372 0
-371 -110 0
-109 -372 0
-109 -110 0
-372 -110 0
385 110 386 111 0
-385 -110 0
-385 -386 0
-385 -111 0
-110 -386 0
-110 -111 0
-386 -111 0
399 111 400 112 0
-399 -111 0
-399 -400 0
-399 -112 0
-111 -400 0
-111 -112 0
-400 -112 0
413 112 414 0
-413 -112 0
-413 -414 0
-112 -414 0
218 219 113 0
-218 -219 0
-218 -113 0
-219 -113 0
232 113 233 114 0
-232 -113 0
-232 -233 0
-232 -114 0
-113 -233 0
-113 -114 0
-233 -114 0
246 114 247 115 0
-246 -114 0
-246 -247 0
-246 -115 0
-114 -247 0
-114 -115 0
-247 -115 0
260 115 261 116 0
-260 -115 0
-260 -261 0
-260 -116 0
-115 -261 0
-115 -116 0
-261 -116 0
274 116 275 117 0
-274 -116 0
-274 -275 0
-274 -117 0
-116 -275 0
-116 -117 0
-275 -117 0
288 117 289 118 0
-288 -117 0
-288 -289 0
-288 -118 0
-117 -289 0
-117 -118 0
-289 -118 0
302 118 303 119 0
-302 -118 0
-302 -303 0
-302 -119 0
-118 -303 0
-118 -119 0
-303 -119 0
316 119 317 120 0
-316 -119 0
-316 -317 0
-316 -120 0
-119 -317 0
-119 -120 0
-317 -120 0
330 120 331 121 0
-330 -120 0
-330 -331 0
-330 -121 0
-120 -331 0
-120 -121 0
-331 -121 0
344 121 345 122 0
-344 -121 0
-344 -345 0
-344 -122 0
-121 -345 0
-121 -122 0
-345 -122 0
358 122 359 123 0
-358 -122 0
-358 -359 0
-358 -123 0
-122 -359 0
-122 -123 0
-359 -123 0
372 123 373 124 0
-372 -123 0
-372 -373 0
-372 -124 0
-123 -373 0
-123 -124 0
-373 -124 0
386 124 387 125 0
-386 -124 0
-386 -387 0
-386 -125 0
-124 -387 0
-124 -125 0
-387 -125 0
400 125 401 126 0
-400 -125 0
-400 -401 0
-400 -126 0
-125 -401 0
-125 -126 0
-401 -126 0
414 126 415 0
-414 -126 0
-414 -415 0
-126 -415 0
219 220 127 0
-219 -220 0
-219 -127 0
-220 -127 0
233 127 234 128 0
-233 -127 0
-233 -234 0
-233 -128 0
-127 -234 0
-127 -128 0
-234 -128 0
247 128 248 129 0
-247 -128 0
-247 -248 0
-247 -129 0
-128 -248 0
-128 -129 0
-248 -129 0
261 129 262 130 0
-261 -129 0
-261 -262 0
-261 -130 0
-129 -262 0
-129 -130 0
-262 -130 0
275 130 276 131 0
-275 -130 0
-275 -276 0
-275 -131 0
-130 -276 0
-130 -131 0
-276 -131 0
289 131 290 132 0
-289 -131 0
-289 -290 0
-289 -132 0
-131 -290 0
-131 -132 0
-290 -132 0
303 132 304 133 0
-303 -132 0
-303 -304 0
-303 -133 0
-132 -304 0
-132 -133 0
-304 -133 0
317 133 318 134 0
-317 -133 0
-317 -318 0
-317 -134 0
-133 -318 0
-133 -134 0
-318 -134 0
331 134 332 135 0
-331 -134 0
-331 -332 0
-331 -135 0
-134 -332 0
-134 -135 0
-332 -135 0
345 135 346 136 0
-345 -135 0
-345 -346 0
-345 -136 0
-135 -346 0
-135 -136 0
-346 -136 0
359 136 360 137 0
-359 -136 0
-359 -360 0
-359 -137 0
-136 -360 0
-136 -137 0
-360 -137 0
373 137 374 138 0
-373 -137 0
-373 -374 0
-373 -138 0
-137 -374 0
-137 -138 0
-374 -138 0
387 138 388 139 0
-387 -138 0
-387 -388 0
-387 -139 0
-138 -388 0
-138 -139 0
-388 -139 0
401 139 402 140 0
-401 -139 0
-401 -402 0
-401 -140 0
-139 -402 0
-139 -140 0
-402 -140 0
415 140 416 0
-415 -140 0
-415 -416 0
-140 -416 0
220 221 141 0
-220 -221 0
-220 -141 0
-221 -141 0
234 141 235 142 0
-234 -141 0
-234 -235 0
-234 -142 0
-141 -235 0
-141 -142 0
-235 -142 0
248 142 249 143 0
-248 -142 0
-248 -249 0
-248 -143 0
-142 -249 0
-142 -143 0
-249 -143 0
262 143 263 144 0
-262 -143 0
-262 -263 0
-262 -144 0
-143 -263 0
-143 -144 0
-263 -144 0
276 144 277 145 0
-276 -144 0
-276 -277 0
-276 -145 0
-144 -277 0
-144 -145 0
-277 -145 0
290 145 291 146 0
-290 -145 0
-290 -291 0
-290 -146 0
-145 -291 0
-145 -146 0
-291 -146 0
304 146 305 147 0
-304 -146 0
-304 -305 0
-304 -147 0
-146 -305 0
-146 -147 0
-305 -147 0
318 147 319 148 0
-318 -147 0
-318 -319 0
-318 -148 0
-147 -319 0
-147 -148 0
-319 -148 0
332 148 333 149 0
-332 -148 0
-332 -333 0
-332 -149 0
-148 -333 0
-148 -149 0
-333 -149 0
346 149 347 150 0
-346 -149 0
-346 -347 0
-346 -150 0
-149 -347 0
-149 -150 0
-347 -150 0
360 150 361 151 0
-360 -150 0
-360 -361 0
-360 -151 0
-150 -361 0
-150 -151 0
-361 -151 0
374 151 375 152 0
-374 -151 0
-374 -375 0
-374 -152 0
-151 -375 0
-151 -152 0
-375 -152 0
388 152 389 153 0
-388 -152 0
-388 -389 0
-388 -153 0
-152 -389 0
-152 -153 0
-389 -153 0
402 153 403 154 0
-402 -153 0
-402 -403 0
-402 -154 0
-153 -403 0
-153 -154 0
-403 -154 0
416 154 417 0
-416 -154 0
-416 -417 0
-154 -417 0
221 222 155 0
-221 -222 0
-221 -155 0
-222 -155 0
235 155 236 156 0
-235 -155 0
-235 -236 0
-235 -156 0
-155 -236 0
-155 -156 0
-236 -156 0
249 156 250 157 0
-249 -156 0
-249 -250 0
-249 -157 0
-156 -250 0
-156 -157 0
-250 -157 0
263 157 264 158 0
-263 -157 0
-263 -264 0
-263 -158 0
-157 -264 0
-157 -158 0
-264 -158 0
277 158 278 159 0
-277 -158 0
-277 -278 0
-277 -159 0
-158 -278 0
-158 -159 0
-278 -159 0
291 159 292 160 0
-291 -159 0
-291 -292 0
-291 -160 0
-159 -292 0
-159 -160 0
-292 -160 0
305 160 306 161 0
-305 -160 0
-305 -306 0
-305 -161 0
-160 -306 0
-160 -161 0
-306 -161 0
319 161 320 162 0
-319 -161 0
-319 -320 0
-319 -162 0
-161 -320 0
-161 -162 0
-320 -162 0
333 162 334 163 0
-333 -162 0
-333 -334 0
-333 -163 0
-162 -334 0
-162 -163 0
-334 -163 0
347 163 348 164 0
-347 -163 0
-347 -348 0
-347 -164 0
-163 -348 0
-163 -164 0
-348 -164 0
361 164 362 165 0
-361 -164 0
-361 -362 0
-361 -165 0
-164 -362 0
-164 -165 0
-362 -165 0
375 165 376 166 0
-375 -165 0
-375 -376 0
-375 -166 0
-165 -376 0
-165 -166 0
-376 -166 0
389 166 390 167 0
-389 -166 0
-389 -390 0
-389 -167 0
-166 -390 0
-166 -167 0
-390 -167 0
403 167 404 168 0
-403 -167 0
-403 -404 0
-403 -168 0
-167 -404 0
-167 -168 0
-404 -168 0
417 168 418 0
-417 -168 0
-417 -418 0
-168 -418 0
222 223 169 0
-222 -223 0
-222 -169 0
-223 -169 0
236 169 237 170 0
-236 -169 0
-236 -237 0
-236 -170 0
-169 -237 0
-169 -170 0
-237 -170 0
250 170 251 171 0
-250 -170 0
-250 -251 0
-250 -171 0
-170 -251 0
-170 -171 0
-251 -171 0
264 171 265 172 0
-264 -171 0
-264 -265 0
-264 -172 0
-171 -265 0
-171 -172 0
-265 -172 0
278 172 279 173 0
-278 -172 0
-278 -279 0
-278 -173 0
-172 -279 0
-172 -173 0
-279 -173 0
292 173 293 174 0
-292 -173 0
-292 -293 0
-292 -174 0
-173 -293 0
-173 -174 0
-293 -174 0
306 174 307 175 0
-306 -174 0
-306 -307 0
-306 -175 0
-174 -307 0
-174 -175 0
-307 -175 0
320 175 321 176 0
-320 -175 0
-320 -321 0
-320 -176 0
-175 -321 0
-175 -176 0
-321 -176 0
334 176 335 177 0
-334 -176 0
-334 -335 0
-334 -177 0
-176 -335 0
-176 -177 0
-335 -177 0
348 177 349 178 0
-348 -177 0
-348 -349 0
-348 -178 0
-177 -349 0
-177 -178 0
-349 -178 0
362 178 363 179 0
-362 -178 0
-362 -363 0
-362 -179 0
-178 -363 0
-178 -179 0
-363 -179 0
376 179 377 180 0
-376 -179 0
-376 -377 0
-376 -180 0
-179 -377 0
-179 -180 0
-377 -180 0
390 180 391 181 0
-390 -180 0
-390 -391 0
-390 -181 0
-180 -391 0
-180 -181 0
-391 -181 0
404 181 405 182 0
-404 -181 0
-404 -405 0
-404 -182 0
-181 -405 0
-181 -182 0
-405 -182 0
418 182 419 0
-418 -182 0
-418 -419 0
-182 -419 0
223 224 183 0
-223 -224 0
-223 -183 0
-224 -183 0
237 183 238 184 0
-237 -183 0
-237 -238 0
-237 -184 0
-183 -238 0
-183 -184 0
-238 -184 0
251 184 252 185 0
-251 -184 0
-251 -252 0
-251 -185 0
-184 -252 0
-184 -185 0
-252 -185 0
265 185 266 186 0
-265 -185 0
-265 -266 0
-265 -186 0
-185 -266 0
-185 -186 0
-266 -186 0
279 186 280 187 0
-279 -186 0
-279 -280 0
-279 -187 0
-186 -280 0
-186 -187 0
-280 -187 0
293 187 294 188 0
-293 -187 0
-293 -294 0
-293 -188 0
-187 -294 0
-187 -188 0
-294 -188 0
307 188 308 189 0
-307 -188 0
-307 -308 0
-307 -189 0
-188 -308 0
-188 -189 0
-308 -189 0
321 189 322 190 0
-321 -189 0
-321 -322 0
-321 -190 0
-189 -322 0
-189 -190 0
-322 -190 0
335 190 336 191 0
-335 -190 0
-335 -336 0
-335 -191 0
-190 -336 0
-190 -191 0
-336 -191 0
349 191 350 192 0
-349 -191 0
-349 -350 0
-349 -192 0
-191 -350 0
-191 -192 0
-350 -192 0
363 192 364 193 0
-363 -192 0
-363 -364 0
-363 -193 0
-192 -364 0
-192 -193 0
-364 -193 0
377 193 378 194 0
-377 -193 0
-377 -378 0
-377 -194 0
-193 -378 0
-193 -194 0
-378 -194 0
391 194 392 195 0
-391 -194 0
-391 -392 0
-391 -195 0
-194 -392 0
-194 -195 0
-392 -195 0
405 195 406 196 0
-405 -195 0
-405 -406 0
-405 -196 0
-195 -406 0
-195 -196 0
-406 -196 0
419 196 0
-419 -196 0
224 197 0
-224 -197 0
238 197 198 0
-238 -197 0
-238 -198 0
-197 -198 0
252 198 199 0
-252 -198 0
-252 -199 0
-198 -199 0
266 199 200 0
-266 -199 0
-266 -200 0
-199 -200 0
280 200 201 0
-280 -200 0
-280 -201 0
-200 -201 0
294 201 202 0
-294 -201 0
-294 -202 0
-201 -202 0
308 202 203 0
-308 -202 0
-308 -203 0
-202 -203 0
322 203 204 0
-322 -203 0
-322 -204 0
-203 -204 0
336 204 205 0
-336 -204 0
-336 -205 0
-204 -205 0
350 205 206 0
-350 -205 0
-350 -206 0
-205 -206 0
364 206 207 0
-364 -206 0
-364 -207 0
-206 -207 0
378 207 208 0
-378 -207 0
-378 -208 0
-207 -208 0
392 208 209 0
-392 -208 0
-392 -209 0
-208 -209 0
406 209 0
-406 -209 0
-210 0
-420 0
